12 24 6 10
5 12 18 16 18 9 8 4 17 11 11 20 10 9 2 17 8 20 3 9 7 17 1 19 
7.04 2.77 7.81 5.37 0.64 1.95 5.74 7.79 1.21 7.76 0.97 3.44 7.05 7.14 4.98 3.75 2.42 0.49 6.35 7.89 1.78 7.2 4.8 5.5 
5.77 6.54 6.72 2.26 1.03 4.01 6.49 0.3 5.5 5.87 1.7 3.66 7.18 4.49 5.14 3.78 1.79 5.19 5.46 7.66 1.58 1.23 4.06 7.25 
7.74 6.45 4.67 2.29 6.42 0.25 1.26 6.42 4.61 0.77 6.16 2.62 6.13 7.57 0.28 6.71 6.34 4.55 6.63 6.34 1.15 2.91 2.64 3.9 
7.46 5.95 3.73 4.18 1.86 4.45 5.24 0.86 6.74 4.4 2.51 6.59 4.24 4.8 4.79 0.78 3.82 3.96 0.69 4.73 4.2 6.31 6.94 7.81 
2.5 4.36 7.51 6.09 6.84 5.09 1.46 2.4 3.47 3.33 0.07 0.99 5.35 3.66 2.47 5.3 3.55 2.94 3.16 2.6 0.97 0.8 5.76 4.32 
0.98 5.43 3.92 3.63 7.71 1.4 1 7.29 1.9 5.28 1.53 7.4 6.34 5.55 1.71 4.32 5.48 2.28 7.95 3.98 0.76 7.39 0.46 4.4 
4 4 4 4 4 4 4 4 4 4 4 4 4 4 4 4 4 4 4 4 4 4 4 4 
1.04 3.08 4.12 5.6 1.13 3.71 6.06 1.38 6.17 7.95 4.31 4.64 4.46 3.16 5.2 3.7 0.5 3.67 1.54 4.28 3.25 4.14 5.37 4.02 
2.69 2.41 1.04 0.83 7.69 7.29 3.04 7.24 3.47 2.58 4.01 0.62 5.97 2.9 2.99 1.15 5.51 6.42 2.44 1.18 1.4 4.38 2.44 4.74 
2.52 7.16 1.13 0.84 4.32 7.85 4.62 7.93 5.16 3.72 5.8 4.62 4.92 3.91 2.54 0.51 1.45 5.03 7.41 6.9 1.92 3.74 1.48 5.09 
5.73 1.06 0.45 3.9 5.56 0.44 7.44 3.68 1.47 3.9 4.45 6.57 2.51 5.95 5.57 4.91 0.79 4.61 0.85 6.19 1.93 7.85 4.28 6.82 
5.52 3.55 3.36 6.66 3.88 5.32 7.16 4.07 1.58 4.93 6.62 7.04 3.42 4.75 1.84 1.25 5.52 3.07 6.12 0.07 6.57 4.51 7.01 7.21 
1 1 1 1 1 1 1 1 1 1 1 1 1 1 1 1 1 1 1 1 1 1 1 1 
1 1 1 1 1 1 1 1 1 1 1 1 1 1 1 1 1 1 1 1 1 1 1 1 
1 1 1 1 1 1 1 1 1 1 1 1 1 1 1 1 1 1 1 1 1 1 1 1 
1 1 1 1 1 1 1 1 1 1 1 1 1 1 1 1 1 1 1 1 1 1 1 1 
1 1 1 1 1 1 1 1 1 1 1 1 1 1 1 1 1 1 1 1 1 1 1 1 
1 1 1 1 1 1 1 1 1 1 1 1 1 1 1 1 1 1 1 1 1 1 1 1 
1 1 1 1 1 1 1 1 1 1 1 1 1 1 1 1 1 1 1 1 1 1 1 1 
1 1 1 1 1 1 1 1 1 1 1 1 1 1 1 1 1 1 1 1 1 1 1 1 
1 1 1 1 1 1 1 1 1 1 1 1 1 1 1 1 1 1 1 1 1 1 1 1 
1 1 1 1 1 1 1 1 1 1 1 1 1 1 1 1 1 1 1 1 1 1 1 1 
1 1 1 1 1 1 1 1 1 1 1 1 1 1 1 1 1 1 1 1 1 1 1 1 
1 1 1 1 1 1 1 1 1 1 1 1 1 1 1 1 1 1 1 1 1 1 1 1 
0.01 0.01 0.01 0.01 0.01 0.01 0.01 0.01 0.01 0.01 0.01 0.01 0.01 0.01 0.01 0.01 0.01 0.01 0.01 0.01 0.01 0.01 0.01 0.01 
0.02 0.02 0.02 0.02 0.02 0.02 0.02 0.02 0.02 0.02 0.02 0.02 0.02 0.02 0.02 0.02 0.02 0.02 0.02 0.02 0.02 0.02 0.02 0.02 
0.03 0.03 0.03 0.03 0.03 0.03 0.03 0.03 0.03 0.03 0.03 0.03 0.03 0.03 0.03 0.03 0.03 0.03 0.03 0.03 0.03 0.03 0.03 0.03 
0.04 0.04 0.04 0.04 0.04 0.04 0.04 0.04 0.04 0.04 0.04 0.04 0.04 0.04 0.04 0.04 0.04 0.04 0.04 0.04 0.04 0.04 0.04 0.04 
0.05 0.05 0.05 0.05 0.05 0.05 0.05 0.05 0.05 0.05 0.05 0.05 0.05 0.05 0.05 0.05 0.05 0.05 0.05 0.05 0.05 0.05 0.05 0.05 
0.06 0.06 0.06 0.06 0.06 0.06 0.06 0.06 0.06 0.06 0.06 0.06 0.06 0.06 0.06 0.06 0.06 0.06 0.06 0.06 0.06 0.06 0.06 0.06 
0.07 0.07 0.07 0.07 0.07 0.07 0.07 0.07 0.07 0.07 0.07 0.07 0.07 0.07 0.07 0.07 0.07 0.07 0.07 0.07 0.07 0.07 0.07 0.07 
0.2 0.2 0.2 0.2 0.2 0.2 0.2 0.2 0.2 0.2 0.2 0.2 0.2 0.2 0.2 0.2 0.2 0.2 0.2 0.2 0.2 0.2 0.2 0.2 
0.4 0.4 0.4 0.4 0.4 0.4 0.4 0.4 0.4 0.4 0.4 0.4 0.4 0.4 0.4 0.4 0.4 0.4 0.4 0.4 0.4 0.4 0.4 0.4 
0.6 0.6 0.6 0.6 0.6 0.6 0.6 0.6 0.6 0.6 0.6 0.6 0.6 0.6 0.6 0.6 0.6 0.6 0.6 0.6 0.6 0.6 0.6 0.6 
0.8 0.8 0.8 0.8 0.8 0.8 0.8 0.8 0.8 0.8 0.8 0.8 0.8 0.8 0.8 0.8 0.8 0.8 0.8 0.8 0.8 0.8 0.8 0.8 
1 1 1 1 1 1 1 1 1 1 1 1 1 1 1 1 1 1 1 1 1 1 1 1 
